; benchmark generated from python API
(set-info :status unknown)
(declare-fun cell_1_1 () Int)
(declare-fun cell_1_3 () Int)
(declare-fun cell_2_4 () Int)
(declare-fun cell_2_9 () Int)
(declare-fun cell_3_6 () Int)
(declare-fun cell_3_8 () Int)
(declare-fun cell_4_1 () Int)
(declare-fun cell_5_9 () Int)
(declare-fun cell_6_6 () Int)
(declare-fun cell_7_2 () Int)
(declare-fun cell_8_5 () Int)
(declare-fun cell_9_7 () Int)
(declare-fun cell_2_1 () Int)
(declare-fun cell_3_1 () Int)
(declare-fun cell_5_1 () Int)
(declare-fun cell_6_1 () Int)
(declare-fun cell_7_1 () Int)
(declare-fun cell_8_1 () Int)
(declare-fun cell_9_1 () Int)
(declare-fun cell_1_2 () Int)
(declare-fun cell_2_2 () Int)
(declare-fun cell_3_2 () Int)
(declare-fun cell_4_2 () Int)
(declare-fun cell_5_2 () Int)
(declare-fun cell_6_2 () Int)
(declare-fun cell_8_2 () Int)
(declare-fun cell_9_2 () Int)
(declare-fun cell_2_3 () Int)
(declare-fun cell_3_3 () Int)
(declare-fun cell_4_3 () Int)
(declare-fun cell_5_3 () Int)
(declare-fun cell_6_3 () Int)
(declare-fun cell_7_3 () Int)
(declare-fun cell_8_3 () Int)
(declare-fun cell_9_3 () Int)
(declare-fun cell_1_4 () Int)
(declare-fun cell_3_4 () Int)
(declare-fun cell_4_4 () Int)
(declare-fun cell_5_4 () Int)
(declare-fun cell_6_4 () Int)
(declare-fun cell_7_4 () Int)
(declare-fun cell_8_4 () Int)
(declare-fun cell_9_4 () Int)
(declare-fun cell_1_5 () Int)
(declare-fun cell_2_5 () Int)
(declare-fun cell_3_5 () Int)
(declare-fun cell_4_5 () Int)
(declare-fun cell_5_5 () Int)
(declare-fun cell_6_5 () Int)
(declare-fun cell_7_5 () Int)
(declare-fun cell_9_5 () Int)
(declare-fun cell_1_6 () Int)
(declare-fun cell_2_6 () Int)
(declare-fun cell_4_6 () Int)
(declare-fun cell_5_6 () Int)
(declare-fun cell_7_6 () Int)
(declare-fun cell_8_6 () Int)
(declare-fun cell_9_6 () Int)
(declare-fun cell_1_7 () Int)
(declare-fun cell_2_7 () Int)
(declare-fun cell_3_7 () Int)
(declare-fun cell_4_7 () Int)
(declare-fun cell_5_7 () Int)
(declare-fun cell_6_7 () Int)
(declare-fun cell_7_7 () Int)
(declare-fun cell_8_7 () Int)
(declare-fun cell_1_8 () Int)
(declare-fun cell_2_8 () Int)
(declare-fun cell_4_8 () Int)
(declare-fun cell_5_8 () Int)
(declare-fun cell_6_8 () Int)
(declare-fun cell_7_8 () Int)
(declare-fun cell_8_8 () Int)
(declare-fun cell_9_8 () Int)
(declare-fun cell_1_9 () Int)
(declare-fun cell_3_9 () Int)
(declare-fun cell_4_9 () Int)
(declare-fun cell_6_9 () Int)
(declare-fun cell_7_9 () Int)
(declare-fun cell_8_9 () Int)
(declare-fun cell_9_9 () Int)
(assert
 (= cell_1_1 2))
(assert
 (= cell_1_3 1))
(assert
 (= cell_2_4 1))
(assert
 (= cell_2_9 2))
(assert
 (= cell_3_6 2))
(assert
 (= cell_3_8 1))
(assert
 (= cell_4_1 1))
(assert
 (= cell_5_9 1))
(assert
 (= cell_6_6 1))
(assert
 (= cell_7_2 1))
(assert
 (= cell_8_5 1))
(assert
 (= cell_9_7 1))
(assert
 (let (($x4429 (= cell_1_1 2)))
 (or (= cell_1_1 1) $x4429 (= cell_1_1 3) (= cell_1_1 4) (= cell_1_1 5) (= cell_1_1 6) (= cell_1_1 7) (= cell_1_1 8) (= cell_1_1 9))))
(assert
 (let (($x3232 (= cell_2_1 9)))
 (let (($x2951 (= cell_2_1 8)))
 (let (($x5317 (= cell_2_1 7)))
 (let (($x722 (= cell_2_1 6)))
 (let (($x6428 (= cell_2_1 5)))
 (let (($x7120 (= cell_2_1 4)))
 (let (($x1344 (= cell_2_1 3)))
 (let (($x577 (= cell_2_1 2)))
 (let (($x3845 (= cell_2_1 1)))
 (or $x3845 $x577 $x1344 $x7120 $x6428 $x722 $x5317 $x2951 $x3232)))))))))))
(assert
 (let (($x10174 (= cell_3_1 9)))
 (let (($x1018 (= cell_3_1 8)))
 (let (($x7838 (= cell_3_1 7)))
 (let (($x2241 (= cell_3_1 6)))
 (let (($x1881 (= cell_3_1 5)))
 (let (($x8222 (= cell_3_1 4)))
 (let (($x8817 (= cell_3_1 3)))
 (let (($x4650 (= cell_3_1 2)))
 (let (($x3910 (= cell_3_1 1)))
 (or $x3910 $x4650 $x8817 $x8222 $x1881 $x2241 $x7838 $x1018 $x10174)))))))))))
(assert
 (let (($x9787 (= cell_4_1 1)))
 (or $x9787 (= cell_4_1 2) (= cell_4_1 3) (= cell_4_1 4) (= cell_4_1 5) (= cell_4_1 6) (= cell_4_1 7) (= cell_4_1 8) (= cell_4_1 9))))
(assert
 (let (($x4639 (= cell_5_1 9)))
 (let (($x10059 (= cell_5_1 8)))
 (let (($x6873 (= cell_5_1 7)))
 (let (($x299 (= cell_5_1 6)))
 (let (($x6598 (= cell_5_1 5)))
 (let (($x3006 (= cell_5_1 4)))
 (let (($x9418 (= cell_5_1 3)))
 (let (($x10231 (= cell_5_1 2)))
 (let (($x8533 (= cell_5_1 1)))
 (or $x8533 $x10231 $x9418 $x3006 $x6598 $x299 $x6873 $x10059 $x4639)))))))))))
(assert
 (let (($x2391 (= cell_6_1 9)))
 (let (($x10031 (= cell_6_1 8)))
 (let (($x4221 (= cell_6_1 7)))
 (let (($x5678 (= cell_6_1 6)))
 (let (($x3327 (= cell_6_1 5)))
 (let (($x9835 (= cell_6_1 4)))
 (let (($x5927 (= cell_6_1 3)))
 (let (($x2084 (= cell_6_1 2)))
 (let (($x348 (= cell_6_1 1)))
 (or $x348 $x2084 $x5927 $x9835 $x3327 $x5678 $x4221 $x10031 $x2391)))))))))))
(assert
 (let (($x3072 (= cell_7_1 9)))
 (let (($x1315 (= cell_7_1 8)))
 (let (($x9174 (= cell_7_1 7)))
 (let (($x600 (= cell_7_1 6)))
 (let (($x184 (= cell_7_1 5)))
 (let (($x7697 (= cell_7_1 4)))
 (let (($x6169 (= cell_7_1 3)))
 (let (($x145 (= cell_7_1 2)))
 (let (($x1356 (= cell_7_1 1)))
 (or $x1356 $x145 $x6169 $x7697 $x184 $x600 $x9174 $x1315 $x3072)))))))))))
(assert
 (let (($x650 (= cell_8_1 9)))
 (let (($x9175 (= cell_8_1 8)))
 (let (($x3310 (= cell_8_1 7)))
 (let (($x6344 (= cell_8_1 6)))
 (let (($x9365 (= cell_8_1 5)))
 (let (($x9770 (= cell_8_1 4)))
 (let (($x1045 (= cell_8_1 3)))
 (let (($x8328 (= cell_8_1 2)))
 (let (($x9235 (= cell_8_1 1)))
 (or $x9235 $x8328 $x1045 $x9770 $x9365 $x6344 $x3310 $x9175 $x650)))))))))))
(assert
 (let (($x9533 (= cell_9_1 9)))
 (let (($x203 (= cell_9_1 8)))
 (let (($x4586 (= cell_9_1 7)))
 (let (($x2928 (= cell_9_1 6)))
 (let (($x8340 (= cell_9_1 5)))
 (let (($x5120 (= cell_9_1 4)))
 (let (($x3013 (= cell_9_1 3)))
 (let (($x3174 (= cell_9_1 2)))
 (let (($x10142 (= cell_9_1 1)))
 (or $x10142 $x3174 $x3013 $x5120 $x8340 $x2928 $x4586 $x203 $x9533)))))))))))
(assert
 (let (($x3019 (= cell_1_2 9)))
 (let (($x9746 (= cell_1_2 8)))
 (let (($x2827 (= cell_1_2 7)))
 (let (($x9654 (= cell_1_2 6)))
 (let (($x6723 (= cell_1_2 5)))
 (let (($x7318 (= cell_1_2 4)))
 (let (($x4866 (= cell_1_2 3)))
 (let (($x7554 (= cell_1_2 2)))
 (let (($x2272 (= cell_1_2 1)))
 (or $x2272 $x7554 $x4866 $x7318 $x6723 $x9654 $x2827 $x9746 $x3019)))))))))))
(assert
 (let (($x1581 (= cell_2_2 9)))
 (let (($x5926 (= cell_2_2 8)))
 (let (($x5038 (= cell_2_2 7)))
 (let (($x2431 (= cell_2_2 6)))
 (let (($x826 (= cell_2_2 5)))
 (let (($x7490 (= cell_2_2 4)))
 (let (($x132 (= cell_2_2 3)))
 (let (($x8176 (= cell_2_2 2)))
 (let (($x950 (= cell_2_2 1)))
 (or $x950 $x8176 $x132 $x7490 $x826 $x2431 $x5038 $x5926 $x1581)))))))))))
(assert
 (let (($x10184 (= cell_3_2 9)))
 (let (($x5364 (= cell_3_2 8)))
 (let (($x5402 (= cell_3_2 7)))
 (let (($x7310 (= cell_3_2 6)))
 (let (($x4495 (= cell_3_2 5)))
 (let (($x7867 (= cell_3_2 4)))
 (let (($x9712 (= cell_3_2 3)))
 (let (($x6339 (= cell_3_2 2)))
 (let (($x4152 (= cell_3_2 1)))
 (or $x4152 $x6339 $x9712 $x7867 $x4495 $x7310 $x5402 $x5364 $x10184)))))))))))
(assert
 (let (($x5842 (= cell_4_2 9)))
 (let (($x9836 (= cell_4_2 8)))
 (let (($x379 (= cell_4_2 7)))
 (let (($x2558 (= cell_4_2 6)))
 (let (($x6459 (= cell_4_2 5)))
 (let (($x2933 (= cell_4_2 4)))
 (let (($x8291 (= cell_4_2 3)))
 (let (($x8792 (= cell_4_2 2)))
 (let (($x9898 (= cell_4_2 1)))
 (or $x9898 $x8792 $x8291 $x2933 $x6459 $x2558 $x379 $x9836 $x5842)))))))))))
(assert
 (let (($x3801 (= cell_5_2 9)))
 (let (($x2202 (= cell_5_2 8)))
 (let (($x2299 (= cell_5_2 7)))
 (let (($x4750 (= cell_5_2 6)))
 (let (($x3921 (= cell_5_2 5)))
 (let (($x1839 (= cell_5_2 4)))
 (let (($x515 (= cell_5_2 3)))
 (let (($x918 (= cell_5_2 2)))
 (let (($x7253 (= cell_5_2 1)))
 (or $x7253 $x918 $x515 $x1839 $x3921 $x4750 $x2299 $x2202 $x3801)))))))))))
(assert
 (let (($x9948 (= cell_6_2 9)))
 (let (($x8394 (= cell_6_2 8)))
 (let (($x3412 (= cell_6_2 7)))
 (let (($x1165 (= cell_6_2 6)))
 (let (($x9344 (= cell_6_2 5)))
 (let (($x6714 (= cell_6_2 4)))
 (let (($x1701 (= cell_6_2 3)))
 (let (($x7466 (= cell_6_2 2)))
 (let (($x60 (= cell_6_2 1)))
 (or $x60 $x7466 $x1701 $x6714 $x9344 $x1165 $x3412 $x8394 $x9948)))))))))))
(assert
 (let (($x432 (= cell_7_2 1)))
 (or $x432 (= cell_7_2 2) (= cell_7_2 3) (= cell_7_2 4) (= cell_7_2 5) (= cell_7_2 6) (= cell_7_2 7) (= cell_7_2 8) (= cell_7_2 9))))
(assert
 (let (($x9162 (= cell_8_2 9)))
 (let (($x1889 (= cell_8_2 8)))
 (let (($x9822 (= cell_8_2 7)))
 (let (($x1377 (= cell_8_2 6)))
 (let (($x9236 (= cell_8_2 5)))
 (let (($x8842 (= cell_8_2 4)))
 (let (($x7151 (= cell_8_2 3)))
 (let (($x7763 (= cell_8_2 2)))
 (let (($x8518 (= cell_8_2 1)))
 (or $x8518 $x7763 $x7151 $x8842 $x9236 $x1377 $x9822 $x1889 $x9162)))))))))))
(assert
 (let (($x7242 (= cell_9_2 9)))
 (let (($x6336 (= cell_9_2 8)))
 (let (($x3276 (= cell_9_2 7)))
 (let (($x7013 (= cell_9_2 6)))
 (let (($x6503 (= cell_9_2 5)))
 (let (($x1523 (= cell_9_2 4)))
 (let (($x4558 (= cell_9_2 3)))
 (let (($x3909 (= cell_9_2 2)))
 (let (($x9351 (= cell_9_2 1)))
 (or $x9351 $x3909 $x4558 $x1523 $x6503 $x7013 $x3276 $x6336 $x7242)))))))))))
(assert
 (let (($x8187 (= cell_1_3 1)))
 (or $x8187 (= cell_1_3 2) (= cell_1_3 3) (= cell_1_3 4) (= cell_1_3 5) (= cell_1_3 6) (= cell_1_3 7) (= cell_1_3 8) (= cell_1_3 9))))
(assert
 (let (($x9936 (= cell_2_3 9)))
 (let (($x209 (= cell_2_3 8)))
 (let (($x1294 (= cell_2_3 7)))
 (let (($x1148 (= cell_2_3 6)))
 (let (($x8899 (= cell_2_3 5)))
 (let (($x7195 (= cell_2_3 4)))
 (let (($x9789 (= cell_2_3 3)))
 (let (($x8357 (= cell_2_3 2)))
 (let (($x2039 (= cell_2_3 1)))
 (or $x2039 $x8357 $x9789 $x7195 $x8899 $x1148 $x1294 $x209 $x9936)))))))))))
(assert
 (let (($x1247 (= cell_3_3 9)))
 (let (($x10168 (= cell_3_3 8)))
 (let (($x1930 (= cell_3_3 7)))
 (let (($x6197 (= cell_3_3 6)))
 (let (($x3173 (= cell_3_3 5)))
 (let (($x2156 (= cell_3_3 4)))
 (let (($x2438 (= cell_3_3 3)))
 (let (($x9560 (= cell_3_3 2)))
 (let (($x2005 (= cell_3_3 1)))
 (or $x2005 $x9560 $x2438 $x2156 $x3173 $x6197 $x1930 $x10168 $x1247)))))))))))
(assert
 (let (($x7779 (= cell_4_3 1)))
 (or $x7779 (= cell_4_3 2) (= cell_4_3 3) (= cell_4_3 4) (= cell_4_3 5) (= cell_4_3 6) (= cell_4_3 7) (= cell_4_3 8) (= cell_4_3 9))))
(assert
 (let (($x1622 (= cell_5_3 9)))
 (let (($x8458 (= cell_5_3 8)))
 (let (($x2273 (= cell_5_3 7)))
 (let (($x7083 (= cell_5_3 6)))
 (let (($x3138 (= cell_5_3 5)))
 (let (($x7995 (= cell_5_3 4)))
 (let (($x9812 (= cell_5_3 3)))
 (let (($x10165 (= cell_5_3 2)))
 (let (($x6910 (= cell_5_3 1)))
 (or $x6910 $x10165 $x9812 $x7995 $x3138 $x7083 $x2273 $x8458 $x1622)))))))))))
(assert
 (let (($x6529 (= cell_6_3 9)))
 (let (($x313 (= cell_6_3 8)))
 (let (($x5091 (= cell_6_3 7)))
 (let (($x7563 (= cell_6_3 6)))
 (let (($x2321 (= cell_6_3 5)))
 (let (($x9335 (= cell_6_3 4)))
 (let (($x5912 (= cell_6_3 3)))
 (let (($x9556 (= cell_6_3 2)))
 (let (($x4266 (= cell_6_3 1)))
 (or $x4266 $x9556 $x5912 $x9335 $x2321 $x7563 $x5091 $x313 $x6529)))))))))))
(assert
 (let (($x7600 (= cell_7_3 1)))
 (or $x7600 (= cell_7_3 2) (= cell_7_3 3) (= cell_7_3 4) (= cell_7_3 5) (= cell_7_3 6) (= cell_7_3 7) (= cell_7_3 8) (= cell_7_3 9))))
(assert
 (let (($x6641 (= cell_8_3 9)))
 (let (($x6636 (= cell_8_3 8)))
 (let (($x493 (= cell_8_3 7)))
 (let (($x10319 (= cell_8_3 6)))
 (let (($x9502 (= cell_8_3 5)))
 (let (($x7172 (= cell_8_3 4)))
 (let (($x1266 (= cell_8_3 3)))
 (let (($x1566 (= cell_8_3 2)))
 (let (($x21 (= cell_8_3 1)))
 (or $x21 $x1566 $x1266 $x7172 $x9502 $x10319 $x493 $x6636 $x6641)))))))))))
(assert
 (let (($x2595 (= cell_9_3 9)))
 (let (($x7696 (= cell_9_3 8)))
 (let (($x6540 (= cell_9_3 7)))
 (let (($x4636 (= cell_9_3 6)))
 (let (($x8851 (= cell_9_3 5)))
 (let (($x2990 (= cell_9_3 4)))
 (let (($x7264 (= cell_9_3 3)))
 (let (($x3365 (= cell_9_3 2)))
 (let (($x1254 (= cell_9_3 1)))
 (or $x1254 $x3365 $x7264 $x2990 $x8851 $x4636 $x6540 $x7696 $x2595)))))))))))
(assert
 (let (($x8095 (= cell_1_4 9)))
 (let (($x7330 (= cell_1_4 8)))
 (let (($x5900 (= cell_1_4 7)))
 (let (($x3137 (= cell_1_4 6)))
 (let (($x7780 (= cell_1_4 5)))
 (let (($x6234 (= cell_1_4 4)))
 (let (($x1159 (= cell_1_4 3)))
 (let (($x761 (= cell_1_4 2)))
 (let (($x6223 (= cell_1_4 1)))
 (or $x6223 $x761 $x1159 $x6234 $x7780 $x3137 $x5900 $x7330 $x8095)))))))))))
(assert
 (let (($x6333 (= cell_2_4 1)))
 (or $x6333 (= cell_2_4 2) (= cell_2_4 3) (= cell_2_4 4) (= cell_2_4 5) (= cell_2_4 6) (= cell_2_4 7) (= cell_2_4 8) (= cell_2_4 9))))
(assert
 (let (($x9169 (= cell_3_4 9)))
 (let (($x6413 (= cell_3_4 8)))
 (let (($x9622 (= cell_3_4 7)))
 (let (($x6783 (= cell_3_4 6)))
 (let (($x5817 (= cell_3_4 5)))
 (let (($x4165 (= cell_3_4 4)))
 (let (($x8132 (= cell_3_4 3)))
 (let (($x5615 (= cell_3_4 2)))
 (let (($x9842 (= cell_3_4 1)))
 (or $x9842 $x5615 $x8132 $x4165 $x5817 $x6783 $x9622 $x6413 $x9169)))))))))))
(assert
 (let (($x1535 (= cell_4_4 9)))
 (let (($x10176 (= cell_4_4 8)))
 (let (($x7859 (= cell_4_4 7)))
 (let (($x5985 (= cell_4_4 6)))
 (let (($x4008 (= cell_4_4 5)))
 (let (($x4794 (= cell_4_4 4)))
 (let (($x3914 (= cell_4_4 3)))
 (let (($x7882 (= cell_4_4 2)))
 (let (($x7334 (= cell_4_4 1)))
 (or $x7334 $x7882 $x3914 $x4794 $x4008 $x5985 $x7859 $x10176 $x1535)))))))))))
(assert
 (let (($x10178 (= cell_5_4 9)))
 (let (($x4459 (= cell_5_4 8)))
 (let (($x6788 (= cell_5_4 7)))
 (let (($x3862 (= cell_5_4 6)))
 (let (($x2492 (= cell_5_4 5)))
 (let (($x7674 (= cell_5_4 4)))
 (let (($x8358 (= cell_5_4 3)))
 (let (($x5041 (= cell_5_4 2)))
 (let (($x4117 (= cell_5_4 1)))
 (or $x4117 $x5041 $x8358 $x7674 $x2492 $x3862 $x6788 $x4459 $x10178)))))))))))
(assert
 (let (($x9398 (= cell_6_4 9)))
 (let (($x647 (= cell_6_4 8)))
 (let (($x1054 (= cell_6_4 7)))
 (let (($x7924 (= cell_6_4 6)))
 (let (($x1796 (= cell_6_4 5)))
 (let (($x3054 (= cell_6_4 4)))
 (let (($x9572 (= cell_6_4 3)))
 (let (($x3935 (= cell_6_4 2)))
 (let (($x5406 (= cell_6_4 1)))
 (or $x5406 $x3935 $x9572 $x3054 $x1796 $x7924 $x1054 $x647 $x9398)))))))))))
(assert
 (let (($x858 (= cell_7_4 9)))
 (let (($x4892 (= cell_7_4 8)))
 (let (($x1921 (= cell_7_4 7)))
 (let (($x9222 (= cell_7_4 6)))
 (let (($x714 (= cell_7_4 5)))
 (let (($x9259 (= cell_7_4 4)))
 (let (($x7745 (= cell_7_4 3)))
 (let (($x3469 (= cell_7_4 2)))
 (let (($x6998 (= cell_7_4 1)))
 (or $x6998 $x3469 $x7745 $x9259 $x714 $x9222 $x1921 $x4892 $x858)))))))))))
(assert
 (let (($x6922 (= cell_8_4 9)))
 (let (($x923 (= cell_8_4 8)))
 (let (($x3484 (= cell_8_4 7)))
 (let (($x519 (= cell_8_4 6)))
 (let (($x9315 (= cell_8_4 5)))
 (let (($x2886 (= cell_8_4 4)))
 (let (($x4539 (= cell_8_4 3)))
 (let (($x4460 (= cell_8_4 2)))
 (let (($x4833 (= cell_8_4 1)))
 (or $x4833 $x4460 $x4539 $x2886 $x9315 $x519 $x3484 $x923 $x6922)))))))))))
(assert
 (let (($x7987 (= cell_9_4 9)))
 (let (($x8843 (= cell_9_4 8)))
 (let (($x265 (= cell_9_4 7)))
 (let (($x5567 (= cell_9_4 6)))
 (let (($x5468 (= cell_9_4 5)))
 (let (($x6946 (= cell_9_4 4)))
 (let (($x6870 (= cell_9_4 3)))
 (let (($x7589 (= cell_9_4 2)))
 (let (($x9334 (= cell_9_4 1)))
 (or $x9334 $x7589 $x6870 $x6946 $x5468 $x5567 $x265 $x8843 $x7987)))))))))))
(assert
 (let (($x4130 (= cell_1_5 9)))
 (let (($x7475 (= cell_1_5 8)))
 (let (($x9476 (= cell_1_5 7)))
 (let (($x2993 (= cell_1_5 6)))
 (let (($x6055 (= cell_1_5 5)))
 (let (($x6510 (= cell_1_5 4)))
 (let (($x5065 (= cell_1_5 3)))
 (let (($x5307 (= cell_1_5 2)))
 (let (($x8033 (= cell_1_5 1)))
 (or $x8033 $x5307 $x5065 $x6510 $x6055 $x2993 $x9476 $x7475 $x4130)))))))))))
(assert
 (let (($x4810 (= cell_2_5 9)))
 (let (($x5590 (= cell_2_5 8)))
 (let (($x971 (= cell_2_5 7)))
 (let (($x5579 (= cell_2_5 6)))
 (let (($x1781 (= cell_2_5 5)))
 (let (($x4456 (= cell_2_5 4)))
 (let (($x5261 (= cell_2_5 3)))
 (let (($x7096 (= cell_2_5 2)))
 (let (($x4507 (= cell_2_5 1)))
 (or $x4507 $x7096 $x5261 $x4456 $x1781 $x5579 $x971 $x5590 $x4810)))))))))))
(assert
 (let (($x2368 (= cell_3_5 9)))
 (let (($x8000 (= cell_3_5 8)))
 (let (($x616 (= cell_3_5 7)))
 (let (($x8488 (= cell_3_5 6)))
 (let (($x2173 (= cell_3_5 5)))
 (let (($x7305 (= cell_3_5 4)))
 (let (($x3823 (= cell_3_5 3)))
 (let (($x903 (= cell_3_5 2)))
 (let (($x5573 (= cell_3_5 1)))
 (or $x5573 $x903 $x3823 $x7305 $x2173 $x8488 $x616 $x8000 $x2368)))))))))))
(assert
 (let (($x9510 (= cell_4_5 9)))
 (let (($x3021 (= cell_4_5 8)))
 (let (($x2234 (= cell_4_5 7)))
 (let (($x6258 (= cell_4_5 6)))
 (let (($x3614 (= cell_4_5 5)))
 (let (($x4890 (= cell_4_5 4)))
 (let (($x1296 (= cell_4_5 3)))
 (let (($x7423 (= cell_4_5 2)))
 (let (($x1485 (= cell_4_5 1)))
 (or $x1485 $x7423 $x1296 $x4890 $x3614 $x6258 $x2234 $x3021 $x9510)))))))))))
(assert
 (let (($x2323 (= cell_5_5 9)))
 (let (($x4184 (= cell_5_5 8)))
 (let (($x8082 (= cell_5_5 7)))
 (let (($x8950 (= cell_5_5 6)))
 (let (($x8622 (= cell_5_5 5)))
 (let (($x244 (= cell_5_5 4)))
 (let (($x5962 (= cell_5_5 3)))
 (let (($x2685 (= cell_5_5 2)))
 (let (($x323 (= cell_5_5 1)))
 (or $x323 $x2685 $x5962 $x244 $x8622 $x8950 $x8082 $x4184 $x2323)))))))))))
(assert
 (let (($x4087 (= cell_6_5 9)))
 (let (($x3124 (= cell_6_5 8)))
 (let (($x2628 (= cell_6_5 7)))
 (let (($x9388 (= cell_6_5 6)))
 (let (($x7925 (= cell_6_5 5)))
 (let (($x4950 (= cell_6_5 4)))
 (let (($x6836 (= cell_6_5 3)))
 (let (($x9575 (= cell_6_5 2)))
 (let (($x6609 (= cell_6_5 1)))
 (or $x6609 $x9575 $x6836 $x4950 $x7925 $x9388 $x2628 $x3124 $x4087)))))))))))
(assert
 (let (($x3294 (= cell_7_5 9)))
 (let (($x5017 (= cell_7_5 8)))
 (let (($x609 (= cell_7_5 7)))
 (let (($x3169 (= cell_7_5 6)))
 (let (($x2870 (= cell_7_5 5)))
 (let (($x9337 (= cell_7_5 4)))
 (let (($x7775 (= cell_7_5 3)))
 (let (($x1603 (= cell_7_5 2)))
 (let (($x2467 (= cell_7_5 1)))
 (or $x2467 $x1603 $x7775 $x9337 $x2870 $x3169 $x609 $x5017 $x3294)))))))))))
(assert
 (let (($x8992 (= cell_8_5 1)))
 (or $x8992 (= cell_8_5 2) (= cell_8_5 3) (= cell_8_5 4) (= cell_8_5 5) (= cell_8_5 6) (= cell_8_5 7) (= cell_8_5 8) (= cell_8_5 9))))
(assert
 (let (($x9140 (= cell_9_5 9)))
 (let (($x5513 (= cell_9_5 8)))
 (let (($x6121 (= cell_9_5 7)))
 (let (($x1751 (= cell_9_5 6)))
 (let (($x2879 (= cell_9_5 5)))
 (let (($x342 (= cell_9_5 4)))
 (let (($x1799 (= cell_9_5 3)))
 (let (($x5680 (= cell_9_5 2)))
 (let (($x8370 (= cell_9_5 1)))
 (or $x8370 $x5680 $x1799 $x342 $x2879 $x1751 $x6121 $x5513 $x9140)))))))))))
(assert
 (let (($x831 (= cell_1_6 9)))
 (let (($x2355 (= cell_1_6 8)))
 (let (($x3215 (= cell_1_6 7)))
 (let (($x1883 (= cell_1_6 6)))
 (let (($x5258 (= cell_1_6 5)))
 (let (($x2729 (= cell_1_6 4)))
 (let (($x9772 (= cell_1_6 3)))
 (let (($x2535 (= cell_1_6 2)))
 (let (($x643 (= cell_1_6 1)))
 (or $x643 $x2535 $x9772 $x2729 $x5258 $x1883 $x3215 $x2355 $x831)))))))))))
(assert
 (let (($x6876 (= cell_2_6 9)))
 (let (($x3391 (= cell_2_6 8)))
 (let (($x9191 (= cell_2_6 7)))
 (let (($x4926 (= cell_2_6 6)))
 (let (($x1397 (= cell_2_6 5)))
 (let (($x5774 (= cell_2_6 4)))
 (let (($x8349 (= cell_2_6 3)))
 (let (($x4691 (= cell_2_6 2)))
 (let (($x8675 (= cell_2_6 1)))
 (or $x8675 $x4691 $x8349 $x5774 $x1397 $x4926 $x9191 $x3391 $x6876)))))))))))
(assert
 (let (($x7299 (= cell_3_6 2)))
 (or (= cell_3_6 1) $x7299 (= cell_3_6 3) (= cell_3_6 4) (= cell_3_6 5) (= cell_3_6 6) (= cell_3_6 7) (= cell_3_6 8) (= cell_3_6 9))))
(assert
 (let (($x2303 (= cell_4_6 9)))
 (let (($x8940 (= cell_4_6 8)))
 (let (($x9301 (= cell_4_6 7)))
 (let (($x8763 (= cell_4_6 6)))
 (let (($x1250 (= cell_4_6 5)))
 (let (($x4755 (= cell_4_6 4)))
 (let (($x5433 (= cell_4_6 3)))
 (let (($x5969 (= cell_4_6 2)))
 (let (($x6970 (= cell_4_6 1)))
 (or $x6970 $x5969 $x5433 $x4755 $x1250 $x8763 $x9301 $x8940 $x2303)))))))))))
(assert
 (let (($x6592 (= cell_5_6 9)))
 (let (($x4009 (= cell_5_6 8)))
 (let (($x361 (= cell_5_6 7)))
 (let (($x2310 (= cell_5_6 6)))
 (let (($x2487 (= cell_5_6 5)))
 (let (($x2804 (= cell_5_6 4)))
 (let (($x8450 (= cell_5_6 3)))
 (let (($x9881 (= cell_5_6 2)))
 (let (($x2575 (= cell_5_6 1)))
 (or $x2575 $x9881 $x8450 $x2804 $x2487 $x2310 $x361 $x4009 $x6592)))))))))))
(assert
 (let (($x2958 (= cell_6_6 1)))
 (or $x2958 (= cell_6_6 2) (= cell_6_6 3) (= cell_6_6 4) (= cell_6_6 5) (= cell_6_6 6) (= cell_6_6 7) (= cell_6_6 8) (= cell_6_6 9))))
(assert
 (let (($x1823 (= cell_7_6 9)))
 (let (($x6623 (= cell_7_6 8)))
 (let (($x9976 (= cell_7_6 7)))
 (let (($x711 (= cell_7_6 6)))
 (let (($x7570 (= cell_7_6 5)))
 (let (($x7425 (= cell_7_6 4)))
 (let (($x10149 (= cell_7_6 3)))
 (let (($x986 (= cell_7_6 2)))
 (let (($x9025 (= cell_7_6 1)))
 (or $x9025 $x986 $x10149 $x7425 $x7570 $x711 $x9976 $x6623 $x1823)))))))))))
(assert
 (let (($x8994 (= cell_8_6 2)))
 (let (($x8599 (= cell_8_6 1)))
 (or $x8599 $x8994 (= cell_8_6 3) (= cell_8_6 4) (= cell_8_6 5) (= cell_8_6 6) (= cell_8_6 7) (= cell_8_6 8) (= cell_8_6 9)))))
(assert
 (let (($x8227 (= cell_9_6 9)))
 (let (($x3898 (= cell_9_6 8)))
 (let (($x3462 (= cell_9_6 7)))
 (let (($x4372 (= cell_9_6 6)))
 (let (($x7782 (= cell_9_6 5)))
 (let (($x4383 (= cell_9_6 4)))
 (let (($x3701 (= cell_9_6 3)))
 (let (($x3551 (= cell_9_6 2)))
 (let (($x5281 (= cell_9_6 1)))
 (or $x5281 $x3551 $x3701 $x4383 $x7782 $x4372 $x3462 $x3898 $x8227)))))))))))
(assert
 (let (($x3647 (= cell_1_7 9)))
 (let (($x9215 (= cell_1_7 8)))
 (let (($x1950 (= cell_1_7 7)))
 (let (($x5467 (= cell_1_7 6)))
 (let (($x7452 (= cell_1_7 5)))
 (let (($x8440 (= cell_1_7 4)))
 (let (($x297 (= cell_1_7 3)))
 (let (($x1991 (= cell_1_7 2)))
 (let (($x612 (= cell_1_7 1)))
 (or $x612 $x1991 $x297 $x8440 $x7452 $x5467 $x1950 $x9215 $x3647)))))))))))
(assert
 (let (($x1553 (= cell_2_7 9)))
 (let (($x1116 (= cell_2_7 8)))
 (let (($x4110 (= cell_2_7 7)))
 (let (($x9616 (= cell_2_7 6)))
 (let (($x9381 (= cell_2_7 5)))
 (let (($x6465 (= cell_2_7 4)))
 (let (($x6810 (= cell_2_7 3)))
 (let (($x6218 (= cell_2_7 2)))
 (let (($x9100 (= cell_2_7 1)))
 (or $x9100 $x6218 $x6810 $x6465 $x9381 $x9616 $x4110 $x1116 $x1553)))))))))))
(assert
 (let (($x5522 (= cell_3_7 9)))
 (let (($x355 (= cell_3_7 8)))
 (let (($x8671 (= cell_3_7 7)))
 (let (($x1158 (= cell_3_7 6)))
 (let (($x8863 (= cell_3_7 5)))
 (let (($x938 (= cell_3_7 4)))
 (let (($x10258 (= cell_3_7 3)))
 (let (($x1986 (= cell_3_7 2)))
 (let (($x7090 (= cell_3_7 1)))
 (or $x7090 $x1986 $x10258 $x938 $x8863 $x1158 $x8671 $x355 $x5522)))))))))))
(assert
 (let (($x2643 (= cell_4_7 9)))
 (let (($x3543 (= cell_4_7 8)))
 (let (($x1573 (= cell_4_7 7)))
 (let (($x9227 (= cell_4_7 6)))
 (let (($x823 (= cell_4_7 5)))
 (let (($x9594 (= cell_4_7 4)))
 (let (($x1379 (= cell_4_7 3)))
 (let (($x8932 (= cell_4_7 2)))
 (let (($x8586 (= cell_4_7 1)))
 (or $x8586 $x8932 $x1379 $x9594 $x823 $x9227 $x1573 $x3543 $x2643)))))))))))
(assert
 (let (($x7758 (= cell_5_7 9)))
 (let (($x1734 (= cell_5_7 8)))
 (let (($x9446 (= cell_5_7 7)))
 (let (($x8056 (= cell_5_7 6)))
 (let (($x2590 (= cell_5_7 5)))
 (let (($x6817 (= cell_5_7 4)))
 (let (($x6138 (= cell_5_7 3)))
 (let (($x8373 (= cell_5_7 2)))
 (let (($x497 (= cell_5_7 1)))
 (or $x497 $x8373 $x6138 $x6817 $x2590 $x8056 $x9446 $x1734 $x7758)))))))))))
(assert
 (let (($x5368 (= cell_6_7 9)))
 (let (($x389 (= cell_6_7 8)))
 (let (($x3336 (= cell_6_7 7)))
 (let (($x8068 (= cell_6_7 6)))
 (let (($x8456 (= cell_6_7 5)))
 (let (($x9213 (= cell_6_7 4)))
 (let (($x8396 (= cell_6_7 3)))
 (let (($x4652 (= cell_6_7 2)))
 (let (($x1209 (= cell_6_7 1)))
 (or $x1209 $x4652 $x8396 $x9213 $x8456 $x8068 $x3336 $x389 $x5368)))))))))))
(assert
 (let (($x8493 (= cell_7_7 9)))
 (let (($x10148 (= cell_7_7 8)))
 (let (($x24 (= cell_7_7 7)))
 (let (($x1650 (= cell_7_7 6)))
 (let (($x6139 (= cell_7_7 5)))
 (let (($x1853 (= cell_7_7 4)))
 (let (($x1929 (= cell_7_7 3)))
 (let (($x7088 (= cell_7_7 2)))
 (let (($x7134 (= cell_7_7 1)))
 (or $x7134 $x7088 $x1929 $x1853 $x6139 $x1650 $x24 $x10148 $x8493)))))))))))
(assert
 (let (($x3261 (= cell_8_7 9)))
 (let (($x6230 (= cell_8_7 8)))
 (let (($x8246 (= cell_8_7 7)))
 (let (($x4870 (= cell_8_7 6)))
 (let (($x5218 (= cell_8_7 5)))
 (let (($x2578 (= cell_8_7 4)))
 (let (($x9161 (= cell_8_7 3)))
 (let (($x8295 (= cell_8_7 2)))
 (let (($x3198 (= cell_8_7 1)))
 (or $x3198 $x8295 $x9161 $x2578 $x5218 $x4870 $x8246 $x6230 $x3261)))))))))))
(assert
 (let (($x882 (= cell_9_7 1)))
 (or $x882 (= cell_9_7 2) (= cell_9_7 3) (= cell_9_7 4) (= cell_9_7 5) (= cell_9_7 6) (= cell_9_7 7) (= cell_9_7 8) (= cell_9_7 9))))
(assert
 (let (($x153 (= cell_1_8 9)))
 (let (($x7070 (= cell_1_8 8)))
 (let (($x6871 (= cell_1_8 7)))
 (let (($x5876 (= cell_1_8 6)))
 (let (($x2031 (= cell_1_8 5)))
 (let (($x5121 (= cell_1_8 4)))
 (let (($x4384 (= cell_1_8 3)))
 (let (($x2848 (= cell_1_8 2)))
 (let (($x7587 (= cell_1_8 1)))
 (or $x7587 $x2848 $x4384 $x5121 $x2031 $x5876 $x6871 $x7070 $x153)))))))))))
(assert
 (let (($x5548 (= cell_2_8 9)))
 (let (($x8112 (= cell_2_8 8)))
 (let (($x3570 (= cell_2_8 7)))
 (let (($x3133 (= cell_2_8 6)))
 (let (($x3866 (= cell_2_8 5)))
 (let (($x3912 (= cell_2_8 4)))
 (let (($x5485 (= cell_2_8 3)))
 (let (($x8836 (= cell_2_8 2)))
 (let (($x1103 (= cell_2_8 1)))
 (or $x1103 $x8836 $x5485 $x3912 $x3866 $x3133 $x3570 $x8112 $x5548)))))))))))
(assert
 (let (($x7198 (= cell_3_8 1)))
 (or $x7198 (= cell_3_8 2) (= cell_3_8 3) (= cell_3_8 4) (= cell_3_8 5) (= cell_3_8 6) (= cell_3_8 7) (= cell_3_8 8) (= cell_3_8 9))))
(assert
 (let (($x7131 (= cell_4_8 9)))
 (let (($x9332 (= cell_4_8 8)))
 (let (($x7071 (= cell_4_8 7)))
 (let (($x9232 (= cell_4_8 6)))
 (let (($x9869 (= cell_4_8 5)))
 (let (($x3963 (= cell_4_8 4)))
 (let (($x5890 (= cell_4_8 3)))
 (let (($x4860 (= cell_4_8 2)))
 (let (($x726 (= cell_4_8 1)))
 (or $x726 $x4860 $x5890 $x3963 $x9869 $x9232 $x7071 $x9332 $x7131)))))))))))
(assert
 (let (($x1282 (= cell_5_8 9)))
 (let (($x683 (= cell_5_8 8)))
 (let (($x5128 (= cell_5_8 7)))
 (let (($x8796 (= cell_5_8 6)))
 (let (($x3567 (= cell_5_8 5)))
 (let (($x6547 (= cell_5_8 4)))
 (let (($x9566 (= cell_5_8 3)))
 (let (($x4311 (= cell_5_8 2)))
 (let (($x3621 (= cell_5_8 1)))
 (or $x3621 $x4311 $x9566 $x6547 $x3567 $x8796 $x5128 $x683 $x1282)))))))))))
(assert
 (let (($x2367 (= cell_6_8 1)))
 (or $x2367 (= cell_6_8 2) (= cell_6_8 3) (= cell_6_8 4) (= cell_6_8 5) (= cell_6_8 6) (= cell_6_8 7) (= cell_6_8 8) (= cell_6_8 9))))
(assert
 (let (($x5780 (= cell_7_8 9)))
 (let (($x9462 (= cell_7_8 8)))
 (let (($x1325 (= cell_7_8 7)))
 (let (($x1361 (= cell_7_8 6)))
 (let (($x6315 (= cell_7_8 5)))
 (let (($x5413 (= cell_7_8 4)))
 (let (($x2432 (= cell_7_8 3)))
 (let (($x3464 (= cell_7_8 2)))
 (let (($x1628 (= cell_7_8 1)))
 (or $x1628 $x3464 $x2432 $x5413 $x6315 $x1361 $x1325 $x9462 $x5780)))))))))))
(assert
 (let (($x920 (= cell_8_8 9)))
 (let (($x6289 (= cell_8_8 8)))
 (let (($x4250 (= cell_8_8 7)))
 (let (($x1312 (= cell_8_8 6)))
 (let (($x4109 (= cell_8_8 5)))
 (let (($x10012 (= cell_8_8 4)))
 (let (($x7583 (= cell_8_8 3)))
 (let (($x2711 (= cell_8_8 2)))
 (let (($x9490 (= cell_8_8 1)))
 (or $x9490 $x2711 $x7583 $x10012 $x4109 $x1312 $x4250 $x6289 $x920)))))))))))
(assert
 (let (($x785 (= cell_9_8 1)))
 (or $x785 (= cell_9_8 2) (= cell_9_8 3) (= cell_9_8 4) (= cell_9_8 5) (= cell_9_8 6) (= cell_9_8 7) (= cell_9_8 8) (= cell_9_8 9))))
(assert
 (let (($x2973 (= cell_1_9 9)))
 (let (($x192 (= cell_1_9 8)))
 (let (($x1740 (= cell_1_9 7)))
 (let (($x6584 (= cell_1_9 6)))
 (let (($x1983 (= cell_1_9 5)))
 (let (($x7877 (= cell_1_9 4)))
 (let (($x5896 (= cell_1_9 3)))
 (let (($x1969 (= cell_1_9 2)))
 (let (($x3790 (= cell_1_9 1)))
 (or $x3790 $x1969 $x5896 $x7877 $x1983 $x6584 $x1740 $x192 $x2973)))))))))))
(assert
 (let (($x1961 (= cell_2_9 2)))
 (or (= cell_2_9 1) $x1961 (= cell_2_9 3) (= cell_2_9 4) (= cell_2_9 5) (= cell_2_9 6) (= cell_2_9 7) (= cell_2_9 8) (= cell_2_9 9))))
(assert
 (let (($x6221 (= cell_3_9 9)))
 (let (($x8189 (= cell_3_9 8)))
 (let (($x8028 (= cell_3_9 7)))
 (let (($x9696 (= cell_3_9 6)))
 (let (($x7479 (= cell_3_9 5)))
 (let (($x10115 (= cell_3_9 4)))
 (let (($x8901 (= cell_3_9 3)))
 (let (($x5514 (= cell_3_9 2)))
 (let (($x6863 (= cell_3_9 1)))
 (or $x6863 $x5514 $x8901 $x10115 $x7479 $x9696 $x8028 $x8189 $x6221)))))))))))
(assert
 (let (($x3211 (= cell_4_9 9)))
 (let (($x3753 (= cell_4_9 8)))
 (let (($x10191 (= cell_4_9 7)))
 (let (($x1006 (= cell_4_9 6)))
 (let (($x8489 (= cell_4_9 5)))
 (let (($x221 (= cell_4_9 4)))
 (let (($x1400 (= cell_4_9 3)))
 (let (($x2545 (= cell_4_9 2)))
 (let (($x8136 (= cell_4_9 1)))
 (or $x8136 $x2545 $x1400 $x221 $x8489 $x1006 $x10191 $x3753 $x3211)))))))))))
(assert
 (let (($x9539 (= cell_5_9 1)))
 (or $x9539 (= cell_5_9 2) (= cell_5_9 3) (= cell_5_9 4) (= cell_5_9 5) (= cell_5_9 6) (= cell_5_9 7) (= cell_5_9 8) (= cell_5_9 9))))
(assert
 (let (($x7290 (= cell_6_9 2)))
 (let (($x6232 (= cell_6_9 1)))
 (or $x6232 $x7290 (= cell_6_9 3) (= cell_6_9 4) (= cell_6_9 5) (= cell_6_9 6) (= cell_6_9 7) (= cell_6_9 8) (= cell_6_9 9)))))
(assert
 (let (($x4242 (= cell_7_9 9)))
 (let (($x9094 (= cell_7_9 8)))
 (let (($x7845 (= cell_7_9 7)))
 (let (($x2956 (= cell_7_9 6)))
 (let (($x2581 (= cell_7_9 5)))
 (let (($x3655 (= cell_7_9 4)))
 (let (($x223 (= cell_7_9 3)))
 (let (($x3282 (= cell_7_9 2)))
 (let (($x4929 (= cell_7_9 1)))
 (or $x4929 $x3282 $x223 $x3655 $x2581 $x2956 $x7845 $x9094 $x4242)))))))))))
(assert
 (let (($x656 (= cell_8_9 9)))
 (let (($x2028 (= cell_8_9 8)))
 (let (($x9118 (= cell_8_9 7)))
 (let (($x5833 (= cell_8_9 6)))
 (let (($x2994 (= cell_8_9 5)))
 (let (($x4436 (= cell_8_9 4)))
 (let (($x9289 (= cell_8_9 3)))
 (let (($x3929 (= cell_8_9 2)))
 (let (($x3000 (= cell_8_9 1)))
 (or $x3000 $x3929 $x9289 $x4436 $x2994 $x5833 $x9118 $x2028 $x656)))))))))))
(assert
 (let (($x10267 (= cell_9_9 2)))
 (let (($x2838 (= cell_9_9 1)))
 (or $x2838 $x10267 (= cell_9_9 3) (= cell_9_9 4) (= cell_9_9 5) (= cell_9_9 6) (= cell_9_9 7) (= cell_9_9 8) (= cell_9_9 9)))))
(assert
 (and (distinct cell_1_1 cell_1_2 cell_1_3 cell_1_4 cell_1_5 cell_1_6 cell_1_7 cell_1_8 cell_1_9) true))
(assert
 (and (distinct cell_2_1 cell_2_2 cell_2_3 cell_2_4 cell_2_5 cell_2_6 cell_2_7 cell_2_8 cell_2_9) true))
(assert
 (and (distinct cell_3_1 cell_3_2 cell_3_3 cell_3_4 cell_3_5 cell_3_6 cell_3_7 cell_3_8 cell_3_9) true))
(assert
 (and (distinct cell_4_1 cell_4_2 cell_4_3 cell_4_4 cell_4_5 cell_4_6 cell_4_7 cell_4_8 cell_4_9) true))
(assert
 (and (distinct cell_5_1 cell_5_2 cell_5_3 cell_5_4 cell_5_5 cell_5_6 cell_5_7 cell_5_8 cell_5_9) true))
(assert
 (and (distinct cell_6_1 cell_6_2 cell_6_3 cell_6_4 cell_6_5 cell_6_6 cell_6_7 cell_6_8 cell_6_9) true))
(assert
 (and (distinct cell_7_1 cell_7_2 cell_7_3 cell_7_4 cell_7_5 cell_7_6 cell_7_7 cell_7_8 cell_7_9) true))
(assert
 (and (distinct cell_8_1 cell_8_2 cell_8_3 cell_8_4 cell_8_5 cell_8_6 cell_8_7 cell_8_8 cell_8_9) true))
(assert
 (and (distinct cell_9_1 cell_9_2 cell_9_3 cell_9_4 cell_9_5 cell_9_6 cell_9_7 cell_9_8 cell_9_9) true))
(assert
 (and (distinct cell_1_1 cell_2_1 cell_3_1 cell_4_1 cell_5_1 cell_6_1 cell_7_1 cell_8_1 cell_9_1) true))
(assert
 (and (distinct cell_1_2 cell_2_2 cell_3_2 cell_4_2 cell_5_2 cell_6_2 cell_7_2 cell_8_2 cell_9_2) true))
(assert
 (and (distinct cell_1_3 cell_2_3 cell_3_3 cell_4_3 cell_5_3 cell_6_3 cell_7_3 cell_8_3 cell_9_3) true))
(assert
 (and (distinct cell_1_4 cell_2_4 cell_3_4 cell_4_4 cell_5_4 cell_6_4 cell_7_4 cell_8_4 cell_9_4) true))
(assert
 (and (distinct cell_1_5 cell_2_5 cell_3_5 cell_4_5 cell_5_5 cell_6_5 cell_7_5 cell_8_5 cell_9_5) true))
(assert
 (and (distinct cell_1_6 cell_2_6 cell_3_6 cell_4_6 cell_5_6 cell_6_6 cell_7_6 cell_8_6 cell_9_6) true))
(assert
 (and (distinct cell_1_7 cell_2_7 cell_3_7 cell_4_7 cell_5_7 cell_6_7 cell_7_7 cell_8_7 cell_9_7) true))
(assert
 (and (distinct cell_1_8 cell_2_8 cell_3_8 cell_4_8 cell_5_8 cell_6_8 cell_7_8 cell_8_8 cell_9_8) true))
(assert
 (and (distinct cell_1_9 cell_2_9 cell_3_9 cell_4_9 cell_5_9 cell_6_9 cell_7_9 cell_8_9 cell_9_9) true))
(assert
 (and (distinct cell_1_1 cell_1_2 cell_1_3 cell_2_1 cell_2_2 cell_2_3 cell_3_1 cell_3_2 cell_3_3) true))
(assert
 (and (distinct cell_1_4 cell_1_5 cell_1_6 cell_2_4 cell_2_5 cell_2_6 cell_3_4 cell_3_5 cell_3_6) true))
(assert
 (and (distinct cell_1_7 cell_1_8 cell_1_9 cell_2_7 cell_2_8 cell_2_9 cell_3_7 cell_3_8 cell_3_9) true))
(assert
 (and (distinct cell_4_1 cell_4_2 cell_4_3 cell_5_1 cell_5_2 cell_5_3 cell_6_1 cell_6_2 cell_6_3) true))
(assert
 (and (distinct cell_4_4 cell_4_5 cell_4_6 cell_5_4 cell_5_5 cell_5_6 cell_6_4 cell_6_5 cell_6_6) true))
(assert
 (and (distinct cell_4_7 cell_4_8 cell_4_9 cell_5_7 cell_5_8 cell_5_9 cell_6_7 cell_6_8 cell_6_9) true))
(assert
 (and (distinct cell_7_1 cell_7_2 cell_7_3 cell_8_1 cell_8_2 cell_8_3 cell_9_1 cell_9_2 cell_9_3) true))
(assert
 (and (distinct cell_7_4 cell_7_5 cell_7_6 cell_8_4 cell_8_5 cell_8_6 cell_9_4 cell_9_5 cell_9_6) true))
(assert
 (and (distinct cell_7_7 cell_7_8 cell_7_9 cell_8_7 cell_8_8 cell_8_9 cell_9_7 cell_9_8 cell_9_9) true))
(assert
 (let (($x424 (and (distinct cell_5_9 cell_6_8 cell_7_7 cell_8_6) true)))
 (let (($x9756 (and (distinct cell_2_9 cell_3_8 cell_4_7 cell_5_6 cell_6_5 cell_7_4 cell_8_3 cell_9_2) true)))
 (let (($x6012 (and (distinct cell_1_8 cell_2_7 cell_3_6 cell_4_5 cell_5_4 cell_6_3 cell_7_2 cell_8_1) true)))
 (let (($x5236 (and (distinct cell_1_5 cell_2_4 cell_3_3 cell_4_2) true)))
 (let (($x4834 (and (distinct cell_5_1 cell_6_2 cell_7_3 cell_8_4) true)))
 (let (($x302 (and (distinct cell_2_1 cell_3_2 cell_4_3 cell_5_4 cell_6_5 cell_7_6 cell_8_7 cell_9_8) true)))
 (let (($x8700 (and (distinct cell_1_2 cell_2_3 cell_3_4 cell_4_5 cell_5_6 cell_6_7 cell_7_8 cell_8_9) true)))
 (let (($x1678 (and (distinct cell_1_5 cell_2_6 cell_3_7 cell_4_8) true)))
 (and $x1678 $x8700 $x302 $x4834 $x5236 $x6012 $x9756 $x424))))))))))
(assert
 (= cell_4_4 2))
(check-sat)
